(declare-const c Real)
(assert (< 0 c))
(declare-const b Real)
(assert (< 0 b))
(declare-const a Real)
(assert (< 0 a))
(assert (not (>= (^ (+ (+ (/ a b) (/ b c)) (+ (/ c a) 1)) 2) (^ (+ (sqrt (/ (+ 1 (^ a 2)) (+ 1 (^ b 2)))) (+ (sqrt (/ (+ 1 (^ b 2)) (+ 1 (^ c 2)))) (+ 1 (sqrt (/ (+ 1 (^ c 2)) (+ 1 (^ a 2))))))) 2))))
(check-sat)
(get-model)
(exit)
